\ LP format - for model browsing. Use MPS format to capture full model detail.
Maximize
  cum_prob_j_2_k_0_s_0 + cum_prob_j_2_k_0_s_1 + cum_prob_j_2_k_0_s_2
   + cum_prob_j_2_k_0_s_3 + cum_prob_j_2_k_0_s_4 + cum_prob_j_2_k_0_s_5
   + cum_prob_j_2_k_0_s_6 + cum_prob_j_2_k_0_s_7 + cum_prob_j_2_k_0_s_8
   + cum_prob_j_2_k_0_s_9 + cum_prob_j_2_k_0_s_10 + cum_prob_j_2_k_0_s_11
   + cum_prob_j_2_k_0_s_12 + cum_prob_j_2_k_0_s_13 + cum_prob_j_2_k_0_s_14
   + cum_prob_j_2_k_0_s_15 + cum_prob_j_2_k_0_s_16 + cum_prob_j_2_k_0_s_17
   + cum_prob_j_2_k_0_s_18 + cum_prob_j_2_k_0_s_19 + cum_prob_j_2_k_0_s_20
   + cum_prob_j_2_k_0_s_21 + cum_prob_j_2_k_0_s_22 + cum_prob_j_2_k_0_s_23
   + cum_prob_j_2_k_0_s_24 + cum_prob_j_2_k_0_s_25 + cum_prob_j_2_k_0_s_26
   + cum_prob_j_2_k_1_s_0 + cum_prob_j_2_k_1_s_1 + cum_prob_j_2_k_1_s_2
   + cum_prob_j_2_k_1_s_3 + cum_prob_j_2_k_1_s_4 + cum_prob_j_2_k_1_s_5
   + cum_prob_j_2_k_1_s_6 + cum_prob_j_2_k_1_s_7 + cum_prob_j_2_k_1_s_8
   + cum_prob_j_2_k_1_s_9 + cum_prob_j_2_k_1_s_10 + cum_prob_j_2_k_1_s_11
   + cum_prob_j_2_k_1_s_12 + cum_prob_j_2_k_1_s_13 + cum_prob_j_2_k_1_s_14
   + cum_prob_j_2_k_1_s_15 + cum_prob_j_2_k_1_s_16 + cum_prob_j_2_k_1_s_17
   + cum_prob_j_2_k_1_s_18 + cum_prob_j_2_k_1_s_19 + cum_prob_j_2_k_1_s_20
   + cum_prob_j_2_k_1_s_21 + cum_prob_j_2_k_1_s_22 + cum_prob_j_2_k_1_s_23
   + cum_prob_j_2_k_1_s_24 + cum_prob_j_2_k_1_s_25 + cum_prob_j_2_k_1_s_26
   + cum_prob_j_2_k_2_s_0 + cum_prob_j_2_k_2_s_1 + cum_prob_j_2_k_2_s_2
   + cum_prob_j_2_k_2_s_3 + cum_prob_j_2_k_2_s_4 + cum_prob_j_2_k_2_s_5
   + cum_prob_j_2_k_2_s_6 + cum_prob_j_2_k_2_s_7 + cum_prob_j_2_k_2_s_8
   + cum_prob_j_2_k_2_s_9 + cum_prob_j_2_k_2_s_10 + cum_prob_j_2_k_2_s_11
   + cum_prob_j_2_k_2_s_12 + cum_prob_j_2_k_2_s_13 + cum_prob_j_2_k_2_s_14
   + cum_prob_j_2_k_2_s_15 + cum_prob_j_2_k_2_s_16 + cum_prob_j_2_k_2_s_17
   + cum_prob_j_2_k_2_s_18 + cum_prob_j_2_k_2_s_19 + cum_prob_j_2_k_2_s_20
   + cum_prob_j_2_k_2_s_21 + cum_prob_j_2_k_2_s_22 + cum_prob_j_2_k_2_s_23
   + cum_prob_j_2_k_2_s_24 + cum_prob_j_2_k_2_s_25 + cum_prob_j_2_k_2_s_26
Subject To
 first_component_s_18_k_0: - 2456.818460516197 allocVar_j_0_k_0
   + cum_prob_j_0_k_0_s_18 = 0
 first_component_s_18_k_1: - 2456.818460516197 allocVar_j_0_k_1
   + cum_prob_j_0_k_1_s_18 = 0
 first_component_s_18_k_2: - 2456.818460516197 allocVar_j_0_k_2
   + cum_prob_j_0_k_2_s_18 = 0
 first_component_s_19_k_0: - 3423.352140544643 allocVar_j_0_k_0
   + cum_prob_j_0_k_0_s_19 = 0
 first_component_s_19_k_1: - 3423.352140544643 allocVar_j_0_k_1
   + cum_prob_j_0_k_1_s_19 = 0
 first_component_s_19_k_2: - 3423.352140544643 allocVar_j_0_k_2
   + cum_prob_j_0_k_2_s_19 = 0
 first_component_s_20_k_0: - 3933.074226745864 allocVar_j_0_k_0
   + cum_prob_j_0_k_0_s_20 = 0
 first_component_s_20_k_1: - 3933.074226745864 allocVar_j_0_k_1
   + cum_prob_j_0_k_1_s_20 = 0
 first_component_s_20_k_2: - 3933.074226745864 allocVar_j_0_k_2
   + cum_prob_j_0_k_2_s_20 = 0
 first_component_s_21_k_0: - 3408.391315243858 allocVar_j_0_k_0
   + cum_prob_j_0_k_0_s_21 = 0
 first_component_s_21_k_1: - 3408.391315243858 allocVar_j_0_k_1
   + cum_prob_j_0_k_1_s_21 = 0
 first_component_s_21_k_2: - 3408.391315243858 allocVar_j_0_k_2
   + cum_prob_j_0_k_2_s_21 = 0
 first_component_s_22_k_0: - 4297.761291479284 allocVar_j_0_k_0
   + cum_prob_j_0_k_0_s_22 = 0
 first_component_s_22_k_1: - 4297.761291479284 allocVar_j_0_k_1
   + cum_prob_j_0_k_1_s_22 = 0
 first_component_s_22_k_2: - 4297.761291479284 allocVar_j_0_k_2
   + cum_prob_j_0_k_2_s_22 = 0
 first_component_s_23_k_0: - 4729.108687460739 allocVar_j_0_k_0
   + cum_prob_j_0_k_0_s_23 = 0
 first_component_s_23_k_1: - 4729.108687460739 allocVar_j_0_k_1
   + cum_prob_j_0_k_1_s_23 = 0
 first_component_s_23_k_2: - 4729.108687460739 allocVar_j_0_k_2
   + cum_prob_j_0_k_2_s_23 = 0
 first_component_s_24_k_0: - 3937.92134864545 allocVar_j_0_k_0
   + cum_prob_j_0_k_0_s_24 = 0
 first_component_s_24_k_1: - 3937.92134864545 allocVar_j_0_k_1
   + cum_prob_j_0_k_1_s_24 = 0
 first_component_s_24_k_2: - 3937.92134864545 allocVar_j_0_k_2
   + cum_prob_j_0_k_2_s_24 = 0
 first_component_s_25_k_0: - 4709.3716312853 allocVar_j_0_k_0
   + cum_prob_j_0_k_0_s_25 = 0
 first_component_s_25_k_1: - 4709.3716312853 allocVar_j_0_k_1
   + cum_prob_j_0_k_1_s_25 = 0
 first_component_s_25_k_2: - 4709.3716312853 allocVar_j_0_k_2
   + cum_prob_j_0_k_2_s_25 = 0
 first_component_s_26_k_0: - 4911.520976311929 allocVar_j_0_k_0
   + cum_prob_j_0_k_0_s_26 = 0
 first_component_s_26_k_1: - 4911.520976311929 allocVar_j_0_k_1
   + cum_prob_j_0_k_1_s_26 = 0
 first_component_s_26_k_2: - 4911.520976311929 allocVar_j_0_k_2
   + cum_prob_j_0_k_2_s_26 = 0
 VUB_j_0_k_0_s_0: - 368.9995457101158 allocVar_j_0_k_0
   + cum_prob_j_0_k_0_s_0 <= 0
 VUB_j_0_k_1_s_0: - 368.9995457101158 allocVar_j_0_k_1
   + cum_prob_j_0_k_1_s_0 <= 0
 VUB_j_0_k_2_s_0: - 368.9995457101158 allocVar_j_0_k_2
   + cum_prob_j_0_k_2_s_0 <= 0
 VUB_j_1_k_0_s_0: - 368.9995457101158 allocVar_j_1_k_0
   + cum_prob_j_1_k_0_s_0 <= 0
 VUB_j_1_k_1_s_0: - 368.9995457101158 allocVar_j_1_k_1
   + cum_prob_j_1_k_1_s_0 <= 0
 VUB_j_1_k_2_s_0: - 368.9995457101158 allocVar_j_1_k_2
   + cum_prob_j_1_k_2_s_0 <= 0
 VUB_j_2_k_0_s_0: - 368.9995457101158 allocVar_j_2_k_0
   + cum_prob_j_2_k_0_s_0 <= 0
 VUB_j_2_k_1_s_0: - 368.9995457101158 allocVar_j_2_k_1
   + cum_prob_j_2_k_1_s_0 <= 0
 VUB_j_2_k_2_s_0: - 368.9995457101158 allocVar_j_2_k_2
   + cum_prob_j_2_k_2_s_0 <= 0
 VUB_j_0_k_0_s_1: - 1413.907249879604 allocVar_j_0_k_0
   + cum_prob_j_0_k_0_s_1 <= 0
 VUB_j_0_k_1_s_1: - 1413.907249879604 allocVar_j_0_k_1
   + cum_prob_j_0_k_1_s_1 <= 0
 VUB_j_0_k_2_s_1: - 1413.907249879604 allocVar_j_0_k_2
   + cum_prob_j_0_k_2_s_1 <= 0
 VUB_j_1_k_0_s_1: - 1413.907249879604 allocVar_j_1_k_0
   + cum_prob_j_1_k_0_s_1 <= 0
 VUB_j_1_k_1_s_1: - 1413.907249879604 allocVar_j_1_k_1
   + cum_prob_j_1_k_1_s_1 <= 0
 VUB_j_1_k_2_s_1: - 1413.907249879604 allocVar_j_1_k_2
   + cum_prob_j_1_k_2_s_1 <= 0
 VUB_j_2_k_0_s_1: - 1413.907249879604 allocVar_j_2_k_0
   + cum_prob_j_2_k_0_s_1 <= 0
 VUB_j_2_k_1_s_1: - 1413.907249879604 allocVar_j_2_k_1
   + cum_prob_j_2_k_1_s_1 <= 0
 VUB_j_2_k_2_s_1: - 1413.907249879604 allocVar_j_2_k_2
   + cum_prob_j_2_k_2_s_1 <= 0
 VUB_j_0_k_0_s_2: - 2184.781521599794 allocVar_j_0_k_0
   + cum_prob_j_0_k_0_s_2 <= 0
 VUB_j_0_k_1_s_2: - 2184.781521599794 allocVar_j_0_k_1
   + cum_prob_j_0_k_1_s_2 <= 0
 VUB_j_0_k_2_s_2: - 2184.781521599794 allocVar_j_0_k_2
   + cum_prob_j_0_k_2_s_2 <= 0
 VUB_j_1_k_0_s_2: - 2184.781521599794 allocVar_j_1_k_0
   + cum_prob_j_1_k_0_s_2 <= 0
 VUB_j_1_k_1_s_2: - 2184.781521599794 allocVar_j_1_k_1
   + cum_prob_j_1_k_1_s_2 <= 0
 VUB_j_1_k_2_s_2: - 2184.781521599794 allocVar_j_1_k_2
   + cum_prob_j_1_k_2_s_2 <= 0
 VUB_j_2_k_0_s_2: - 2184.781521599794 allocVar_j_2_k_0
   + cum_prob_j_2_k_0_s_2 <= 0
 VUB_j_2_k_1_s_2: - 2184.781521599794 allocVar_j_2_k_1
   + cum_prob_j_2_k_1_s_2 <= 0
 VUB_j_2_k_2_s_2: - 2184.781521599794 allocVar_j_2_k_2
   + cum_prob_j_2_k_2_s_2 <= 0
 VUB_j_0_k_0_s_3: - 1403.851324943841 allocVar_j_0_k_0
   + cum_prob_j_0_k_0_s_3 <= 0
 VUB_j_0_k_1_s_3: - 1403.851324943841 allocVar_j_0_k_1
   + cum_prob_j_0_k_1_s_3 <= 0
 VUB_j_0_k_2_s_3: - 1403.851324943841 allocVar_j_0_k_2
   + cum_prob_j_0_k_2_s_3 <= 0
 VUB_j_1_k_0_s_3: - 1403.851324943841 allocVar_j_1_k_0
   + cum_prob_j_1_k_0_s_3 <= 0
 VUB_j_1_k_1_s_3: - 1403.851324943841 allocVar_j_1_k_1
   + cum_prob_j_1_k_1_s_3 <= 0
 VUB_j_1_k_2_s_3: - 1403.851324943841 allocVar_j_1_k_2
   + cum_prob_j_1_k_2_s_3 <= 0
 VUB_j_2_k_0_s_3: - 1403.851324943841 allocVar_j_2_k_0
   + cum_prob_j_2_k_0_s_3 <= 0
 VUB_j_2_k_1_s_3: - 1403.851324943841 allocVar_j_2_k_1
   + cum_prob_j_2_k_1_s_3 <= 0
 VUB_j_2_k_2_s_3: - 1403.851324943841 allocVar_j_2_k_2
   + cum_prob_j_2_k_2_s_3 <= 0
 VUB_j_0_k_0_s_4: - 2431.24389464417 allocVar_j_0_k_0
   + cum_prob_j_0_k_0_s_4 <= 0
 VUB_j_0_k_1_s_4: - 2431.24389464417 allocVar_j_0_k_1
   + cum_prob_j_0_k_1_s_4 <= 0
 VUB_j_0_k_2_s_4: - 2431.24389464417 allocVar_j_0_k_2
   + cum_prob_j_0_k_2_s_4 <= 0
 VUB_j_1_k_0_s_4: - 2431.24389464417 allocVar_j_1_k_0
   + cum_prob_j_1_k_0_s_4 <= 0
 VUB_j_1_k_1_s_4: - 2431.24389464417 allocVar_j_1_k_1
   + cum_prob_j_1_k_1_s_4 <= 0
 VUB_j_1_k_2_s_4: - 2431.24389464417 allocVar_j_1_k_2
   + cum_prob_j_1_k_2_s_4 <= 0
 VUB_j_2_k_0_s_4: - 2431.24389464417 allocVar_j_2_k_0
   + cum_prob_j_2_k_0_s_4 <= 0
 VUB_j_2_k_1_s_4: - 2431.24389464417 allocVar_j_2_k_1
   + cum_prob_j_2_k_1_s_4 <= 0
 VUB_j_2_k_2_s_4: - 2431.24389464417 allocVar_j_2_k_2
   + cum_prob_j_2_k_2_s_4 <= 0
 VUB_j_0_k_0_s_5: - 3088.692716839108 allocVar_j_0_k_0
   + cum_prob_j_0_k_0_s_5 <= 0
 VUB_j_0_k_1_s_5: - 3088.692716839108 allocVar_j_0_k_1
   + cum_prob_j_0_k_1_s_5 <= 0
 VUB_j_0_k_2_s_5: - 3088.692716839108 allocVar_j_0_k_2
   + cum_prob_j_0_k_2_s_5 <= 0
 VUB_j_1_k_0_s_5: - 3088.692716839108 allocVar_j_1_k_0
   + cum_prob_j_1_k_0_s_5 <= 0
 VUB_j_1_k_1_s_5: - 3088.692716839108 allocVar_j_1_k_1
   + cum_prob_j_1_k_1_s_5 <= 0
 VUB_j_1_k_2_s_5: - 3088.692716839108 allocVar_j_1_k_2
   + cum_prob_j_1_k_2_s_5 <= 0
 VUB_j_2_k_0_s_5: - 3088.692716839108 allocVar_j_2_k_0
   + cum_prob_j_2_k_0_s_5 <= 0
 VUB_j_2_k_1_s_5: - 3088.692716839108 allocVar_j_2_k_1
   + cum_prob_j_2_k_1_s_5 <= 0
 VUB_j_2_k_2_s_5: - 3088.692716839108 allocVar_j_2_k_2
   + cum_prob_j_2_k_2_s_5 <= 0
 VUB_j_0_k_0_s_6: - 2137.464357663524 allocVar_j_0_k_0
   + cum_prob_j_0_k_0_s_6 <= 0
 VUB_j_0_k_1_s_6: - 2137.464357663524 allocVar_j_0_k_1
   + cum_prob_j_0_k_1_s_6 <= 0
 VUB_j_0_k_2_s_6: - 2137.464357663524 allocVar_j_0_k_2
   + cum_prob_j_0_k_2_s_6 <= 0
 VUB_j_1_k_0_s_6: - 2137.464357663524 allocVar_j_1_k_0
   + cum_prob_j_1_k_0_s_6 <= 0
 VUB_j_1_k_1_s_6: - 2137.464357663524 allocVar_j_1_k_1
   + cum_prob_j_1_k_1_s_6 <= 0
 VUB_j_1_k_2_s_6: - 2137.464357663524 allocVar_j_1_k_2
   + cum_prob_j_1_k_2_s_6 <= 0
 VUB_j_2_k_0_s_6: - 2137.464357663524 allocVar_j_2_k_0
   + cum_prob_j_2_k_0_s_6 <= 0
 VUB_j_2_k_1_s_6: - 2137.464357663524 allocVar_j_2_k_1
   + cum_prob_j_2_k_1_s_6 <= 0
 VUB_j_2_k_2_s_6: - 2137.464357663524 allocVar_j_2_k_2
   + cum_prob_j_2_k_2_s_6 <= 0
 VUB_j_0_k_0_s_7: - 3118.979948881517 allocVar_j_0_k_0
   + cum_prob_j_0_k_0_s_7 <= 0
 VUB_j_0_k_1_s_7: - 3118.979948881517 allocVar_j_0_k_1
   + cum_prob_j_0_k_1_s_7 <= 0
 VUB_j_0_k_2_s_7: - 3118.979948881517 allocVar_j_0_k_2
   + cum_prob_j_0_k_2_s_7 <= 0
 VUB_j_1_k_0_s_7: - 3118.979948881517 allocVar_j_1_k_0
   + cum_prob_j_1_k_0_s_7 <= 0
 VUB_j_1_k_1_s_7: - 3118.979948881517 allocVar_j_1_k_1
   + cum_prob_j_1_k_1_s_7 <= 0
 VUB_j_1_k_2_s_7: - 3118.979948881517 allocVar_j_1_k_2
   + cum_prob_j_1_k_2_s_7 <= 0
 VUB_j_2_k_0_s_7: - 3118.979948881517 allocVar_j_2_k_0
   + cum_prob_j_2_k_0_s_7 <= 0
 VUB_j_2_k_1_s_7: - 3118.979948881517 allocVar_j_2_k_1
   + cum_prob_j_2_k_1_s_7 <= 0
 VUB_j_2_k_2_s_7: - 3118.979948881517 allocVar_j_2_k_2
   + cum_prob_j_2_k_2_s_7 <= 0
 VUB_j_0_k_0_s_8: - 3637.022959700612 allocVar_j_0_k_0
   + cum_prob_j_0_k_0_s_8 <= 0
 VUB_j_0_k_1_s_8: - 3637.022959700612 allocVar_j_0_k_1
   + cum_prob_j_0_k_1_s_8 <= 0
 VUB_j_0_k_2_s_8: - 3637.022959700612 allocVar_j_0_k_2
   + cum_prob_j_0_k_2_s_8 <= 0
 VUB_j_1_k_0_s_8: - 3637.022959700612 allocVar_j_1_k_0
   + cum_prob_j_1_k_0_s_8 <= 0
 VUB_j_1_k_1_s_8: - 3637.022959700612 allocVar_j_1_k_1
   + cum_prob_j_1_k_1_s_8 <= 0
 VUB_j_1_k_2_s_8: - 3637.022959700612 allocVar_j_1_k_2
   + cum_prob_j_1_k_2_s_8 <= 0
 VUB_j_2_k_0_s_8: - 3637.022959700612 allocVar_j_2_k_0
   + cum_prob_j_2_k_0_s_8 <= 0
 VUB_j_2_k_1_s_8: - 3637.022959700612 allocVar_j_2_k_1
   + cum_prob_j_2_k_1_s_8 <= 0
 VUB_j_2_k_2_s_8: - 3637.022959700612 allocVar_j_2_k_2
   + cum_prob_j_2_k_2_s_8 <= 0
 VUB_j_0_k_0_s_9: - 1636.659183335595 allocVar_j_0_k_0
   + cum_prob_j_0_k_0_s_9 <= 0
 VUB_j_0_k_1_s_9: - 1636.659183335595 allocVar_j_0_k_1
   + cum_prob_j_0_k_1_s_9 <= 0
 VUB_j_0_k_2_s_9: - 1636.659183335595 allocVar_j_0_k_2
   + cum_prob_j_0_k_2_s_9 <= 0
 VUB_j_1_k_0_s_9: - 1636.659183335595 allocVar_j_1_k_0
   + cum_prob_j_1_k_0_s_9 <= 0
 VUB_j_1_k_1_s_9: - 1636.659183335595 allocVar_j_1_k_1
   + cum_prob_j_1_k_1_s_9 <= 0
 VUB_j_1_k_2_s_9: - 1636.659183335595 allocVar_j_1_k_2
   + cum_prob_j_1_k_2_s_9 <= 0
 VUB_j_2_k_0_s_9: - 1636.659183335595 allocVar_j_2_k_0
   + cum_prob_j_2_k_0_s_9 <= 0
 VUB_j_2_k_1_s_9: - 1636.659183335595 allocVar_j_2_k_1
   + cum_prob_j_2_k_1_s_9 <= 0
 VUB_j_2_k_2_s_9: - 1636.659183335595 allocVar_j_2_k_2
   + cum_prob_j_2_k_2_s_9 <= 0
 VUB_j_0_k_0_s_10: - 2676.911250060345 allocVar_j_0_k_0
   + cum_prob_j_0_k_0_s_10 <= 0
 VUB_j_0_k_1_s_10: - 2676.911250060345 allocVar_j_0_k_1
   + cum_prob_j_0_k_1_s_10 <= 0
 VUB_j_0_k_2_s_10: - 2676.911250060345 allocVar_j_0_k_2
   + cum_prob_j_0_k_2_s_10 <= 0
 VUB_j_1_k_0_s_10: - 2676.911250060345 allocVar_j_1_k_0
   + cum_prob_j_1_k_0_s_10 <= 0
 VUB_j_1_k_1_s_10: - 2676.911250060345 allocVar_j_1_k_1
   + cum_prob_j_1_k_1_s_10 <= 0
 VUB_j_1_k_2_s_10: - 2676.911250060345 allocVar_j_1_k_2
   + cum_prob_j_1_k_2_s_10 <= 0
 VUB_j_2_k_0_s_10: - 2676.911250060345 allocVar_j_2_k_0
   + cum_prob_j_2_k_0_s_10 <= 0
 VUB_j_2_k_1_s_10: - 2676.911250060345 allocVar_j_2_k_1
   + cum_prob_j_2_k_1_s_10 <= 0
 VUB_j_2_k_2_s_10: - 2676.911250060345 allocVar_j_2_k_2
   + cum_prob_j_2_k_2_s_10 <= 0
 VUB_j_0_k_0_s_11: - 3390.302029618901 allocVar_j_0_k_0
   + cum_prob_j_0_k_0_s_11 <= 0
 VUB_j_0_k_1_s_11: - 3390.302029618901 allocVar_j_0_k_1
   + cum_prob_j_0_k_1_s_11 <= 0
 VUB_j_0_k_2_s_11: - 3390.302029618901 allocVar_j_0_k_2
   + cum_prob_j_0_k_2_s_11 <= 0
 VUB_j_1_k_0_s_11: - 3390.302029618901 allocVar_j_1_k_0
   + cum_prob_j_1_k_0_s_11 <= 0
 VUB_j_1_k_1_s_11: - 3390.302029618901 allocVar_j_1_k_1
   + cum_prob_j_1_k_1_s_11 <= 0
 VUB_j_1_k_2_s_11: - 3390.302029618901 allocVar_j_1_k_2
   + cum_prob_j_1_k_2_s_11 <= 0
 VUB_j_2_k_0_s_11: - 3390.302029618901 allocVar_j_2_k_0
   + cum_prob_j_2_k_0_s_11 <= 0
 VUB_j_2_k_1_s_11: - 3390.302029618901 allocVar_j_2_k_1
   + cum_prob_j_2_k_1_s_11 <= 0
 VUB_j_2_k_2_s_11: - 3390.302029618901 allocVar_j_2_k_2
   + cum_prob_j_2_k_2_s_11 <= 0
 VUB_j_0_k_0_s_12: - 2659.788487066377 allocVar_j_0_k_0
   + cum_prob_j_0_k_0_s_12 <= 0
 VUB_j_0_k_1_s_12: - 2659.788487066377 allocVar_j_0_k_1
   + cum_prob_j_0_k_1_s_12 <= 0
 VUB_j_0_k_2_s_12: - 2659.788487066377 allocVar_j_0_k_2
   + cum_prob_j_0_k_2_s_12 <= 0
 VUB_j_1_k_0_s_12: - 2659.788487066377 allocVar_j_1_k_0
   + cum_prob_j_1_k_0_s_12 <= 0
 VUB_j_1_k_1_s_12: - 2659.788487066377 allocVar_j_1_k_1
   + cum_prob_j_1_k_1_s_12 <= 0
 VUB_j_1_k_2_s_12: - 2659.788487066377 allocVar_j_1_k_2
   + cum_prob_j_1_k_2_s_12 <= 0
 VUB_j_2_k_0_s_12: - 2659.788487066377 allocVar_j_2_k_0
   + cum_prob_j_2_k_0_s_12 <= 0
 VUB_j_2_k_1_s_12: - 2659.788487066377 allocVar_j_2_k_1
   + cum_prob_j_2_k_1_s_12 <= 0
 VUB_j_2_k_2_s_12: - 2659.788487066377 allocVar_j_2_k_2
   + cum_prob_j_2_k_2_s_12 <= 0
 VUB_j_0_k_0_s_13: - 3674.393310428646 allocVar_j_0_k_0
   + cum_prob_j_0_k_0_s_13 <= 0
 VUB_j_0_k_1_s_13: - 3674.393310428646 allocVar_j_0_k_1
   + cum_prob_j_0_k_1_s_13 <= 0
 VUB_j_0_k_2_s_13: - 3674.393310428646 allocVar_j_0_k_2
   + cum_prob_j_0_k_2_s_13 <= 0
 VUB_j_1_k_0_s_13: - 3674.393310428646 allocVar_j_1_k_0
   + cum_prob_j_1_k_0_s_13 <= 0
 VUB_j_1_k_1_s_13: - 3674.393310428646 allocVar_j_1_k_1
   + cum_prob_j_1_k_1_s_13 <= 0
 VUB_j_1_k_2_s_13: - 3674.393310428646 allocVar_j_1_k_2
   + cum_prob_j_1_k_2_s_13 <= 0
 VUB_j_2_k_0_s_13: - 3674.393310428646 allocVar_j_2_k_0
   + cum_prob_j_2_k_0_s_13 <= 0
 VUB_j_2_k_1_s_13: - 3674.393310428646 allocVar_j_2_k_1
   + cum_prob_j_2_k_1_s_13 <= 0
 VUB_j_2_k_2_s_13: - 3674.393310428646 allocVar_j_2_k_2
   + cum_prob_j_2_k_2_s_13 <= 0
 VUB_j_0_k_0_s_14: - 4270.686189890728 allocVar_j_0_k_0
   + cum_prob_j_0_k_0_s_14 <= 0
 VUB_j_0_k_1_s_14: - 4270.686189890728 allocVar_j_0_k_1
   + cum_prob_j_0_k_1_s_14 <= 0
 VUB_j_0_k_2_s_14: - 4270.686189890728 allocVar_j_0_k_2
   + cum_prob_j_0_k_2_s_14 <= 0
 VUB_j_1_k_0_s_14: - 4270.686189890728 allocVar_j_1_k_0
   + cum_prob_j_1_k_0_s_14 <= 0
 VUB_j_1_k_1_s_14: - 4270.686189890728 allocVar_j_1_k_1
   + cum_prob_j_1_k_1_s_14 <= 0
 VUB_j_1_k_2_s_14: - 4270.686189890728 allocVar_j_1_k_2
   + cum_prob_j_1_k_2_s_14 <= 0
 VUB_j_2_k_0_s_14: - 4270.686189890728 allocVar_j_2_k_0
   + cum_prob_j_2_k_0_s_14 <= 0
 VUB_j_2_k_1_s_14: - 4270.686189890728 allocVar_j_2_k_1
   + cum_prob_j_2_k_1_s_14 <= 0
 VUB_j_2_k_2_s_14: - 4270.686189890728 allocVar_j_2_k_2
   + cum_prob_j_2_k_2_s_14 <= 0
 VUB_j_0_k_0_s_15: - 3349.813022765346 allocVar_j_0_k_0
   + cum_prob_j_0_k_0_s_15 <= 0
 VUB_j_0_k_1_s_15: - 3349.813022765346 allocVar_j_0_k_1
   + cum_prob_j_0_k_1_s_15 <= 0
 VUB_j_0_k_2_s_15: - 3349.813022765346 allocVar_j_0_k_2
   + cum_prob_j_0_k_2_s_15 <= 0
 VUB_j_1_k_0_s_15: - 3349.813022765346 allocVar_j_1_k_0
   + cum_prob_j_1_k_0_s_15 <= 0
 VUB_j_1_k_1_s_15: - 3349.813022765346 allocVar_j_1_k_1
   + cum_prob_j_1_k_1_s_15 <= 0
 VUB_j_1_k_2_s_15: - 3349.813022765346 allocVar_j_1_k_2
   + cum_prob_j_1_k_2_s_15 <= 0
 VUB_j_2_k_0_s_15: - 3349.813022765346 allocVar_j_2_k_0
   + cum_prob_j_2_k_0_s_15 <= 0
 VUB_j_2_k_1_s_15: - 3349.813022765346 allocVar_j_2_k_1
   + cum_prob_j_2_k_1_s_15 <= 0
 VUB_j_2_k_2_s_15: - 3349.813022765346 allocVar_j_2_k_2
   + cum_prob_j_2_k_2_s_15 <= 0
 VUB_j_0_k_0_s_16: - 4296.357417013464 allocVar_j_0_k_0
   + cum_prob_j_0_k_0_s_16 <= 0
 VUB_j_0_k_1_s_16: - 4296.357417013464 allocVar_j_0_k_1
   + cum_prob_j_0_k_1_s_16 <= 0
 VUB_j_0_k_2_s_16: - 4296.357417013464 allocVar_j_0_k_2
   + cum_prob_j_0_k_2_s_16 <= 0
 VUB_j_1_k_0_s_16: - 4296.357417013464 allocVar_j_1_k_0
   + cum_prob_j_1_k_0_s_16 <= 0
 VUB_j_1_k_1_s_16: - 4296.357417013464 allocVar_j_1_k_1
   + cum_prob_j_1_k_1_s_16 <= 0
 VUB_j_1_k_2_s_16: - 4296.357417013464 allocVar_j_1_k_2
   + cum_prob_j_1_k_2_s_16 <= 0
 VUB_j_2_k_0_s_16: - 4296.357417013464 allocVar_j_2_k_0
   + cum_prob_j_2_k_0_s_16 <= 0
 VUB_j_2_k_1_s_16: - 4296.357417013464 allocVar_j_2_k_1
   + cum_prob_j_2_k_1_s_16 <= 0
 VUB_j_2_k_2_s_16: - 4296.357417013464 allocVar_j_2_k_2
   + cum_prob_j_2_k_2_s_16 <= 0
 VUB_j_0_k_0_s_17: - 4721.611131983592 allocVar_j_0_k_0
   + cum_prob_j_0_k_0_s_17 <= 0
 VUB_j_0_k_1_s_17: - 4721.611131983592 allocVar_j_0_k_1
   + cum_prob_j_0_k_1_s_17 <= 0
 VUB_j_0_k_2_s_17: - 4721.611131983592 allocVar_j_0_k_2
   + cum_prob_j_0_k_2_s_17 <= 0
 VUB_j_1_k_0_s_17: - 4721.611131983592 allocVar_j_1_k_0
   + cum_prob_j_1_k_0_s_17 <= 0
 VUB_j_1_k_1_s_17: - 4721.611131983592 allocVar_j_1_k_1
   + cum_prob_j_1_k_1_s_17 <= 0
 VUB_j_1_k_2_s_17: - 4721.611131983592 allocVar_j_1_k_2
   + cum_prob_j_1_k_2_s_17 <= 0
 VUB_j_2_k_0_s_17: - 4721.611131983592 allocVar_j_2_k_0
   + cum_prob_j_2_k_0_s_17 <= 0
 VUB_j_2_k_1_s_17: - 4721.611131983592 allocVar_j_2_k_1
   + cum_prob_j_2_k_1_s_17 <= 0
 VUB_j_2_k_2_s_17: - 4721.611131983592 allocVar_j_2_k_2
   + cum_prob_j_2_k_2_s_17 <= 0
 VUB_j_0_k_0_s_18: - 2456.818460516197 allocVar_j_0_k_0
   + cum_prob_j_0_k_0_s_18 <= 0
 VUB_j_0_k_1_s_18: - 2456.818460516197 allocVar_j_0_k_1
   + cum_prob_j_0_k_1_s_18 <= 0
 VUB_j_0_k_2_s_18: - 2456.818460516197 allocVar_j_0_k_2
   + cum_prob_j_0_k_2_s_18 <= 0
 VUB_j_1_k_0_s_18: - 2456.818460516197 allocVar_j_1_k_0
   + cum_prob_j_1_k_0_s_18 <= 0
 VUB_j_1_k_1_s_18: - 2456.818460516197 allocVar_j_1_k_1
   + cum_prob_j_1_k_1_s_18 <= 0
 VUB_j_1_k_2_s_18: - 2456.818460516197 allocVar_j_1_k_2
   + cum_prob_j_1_k_2_s_18 <= 0
 VUB_j_2_k_0_s_18: - 2456.818460516197 allocVar_j_2_k_0
   + cum_prob_j_2_k_0_s_18 <= 0
 VUB_j_2_k_1_s_18: - 2456.818460516197 allocVar_j_2_k_1
   + cum_prob_j_2_k_1_s_18 <= 0
 VUB_j_2_k_2_s_18: - 2456.818460516197 allocVar_j_2_k_2
   + cum_prob_j_2_k_2_s_18 <= 0
 VUB_j_0_k_0_s_19: - 3423.352140544643 allocVar_j_0_k_0
   + cum_prob_j_0_k_0_s_19 <= 0
 VUB_j_0_k_1_s_19: - 3423.352140544643 allocVar_j_0_k_1
   + cum_prob_j_0_k_1_s_19 <= 0
 VUB_j_0_k_2_s_19: - 3423.352140544643 allocVar_j_0_k_2
   + cum_prob_j_0_k_2_s_19 <= 0
 VUB_j_1_k_0_s_19: - 3423.352140544643 allocVar_j_1_k_0
   + cum_prob_j_1_k_0_s_19 <= 0
 VUB_j_1_k_1_s_19: - 3423.352140544643 allocVar_j_1_k_1
   + cum_prob_j_1_k_1_s_19 <= 0
 VUB_j_1_k_2_s_19: - 3423.352140544643 allocVar_j_1_k_2
   + cum_prob_j_1_k_2_s_19 <= 0
 VUB_j_2_k_0_s_19: - 3423.352140544643 allocVar_j_2_k_0
   + cum_prob_j_2_k_0_s_19 <= 0
 VUB_j_2_k_1_s_19: - 3423.352140544643 allocVar_j_2_k_1
   + cum_prob_j_2_k_1_s_19 <= 0
 VUB_j_2_k_2_s_19: - 3423.352140544643 allocVar_j_2_k_2
   + cum_prob_j_2_k_2_s_19 <= 0
 VUB_j_0_k_0_s_20: - 3933.074226745864 allocVar_j_0_k_0
   + cum_prob_j_0_k_0_s_20 <= 0
 VUB_j_0_k_1_s_20: - 3933.074226745864 allocVar_j_0_k_1
   + cum_prob_j_0_k_1_s_20 <= 0
 VUB_j_0_k_2_s_20: - 3933.074226745864 allocVar_j_0_k_2
   + cum_prob_j_0_k_2_s_20 <= 0
 VUB_j_1_k_0_s_20: - 3933.074226745864 allocVar_j_1_k_0
   + cum_prob_j_1_k_0_s_20 <= 0
 VUB_j_1_k_1_s_20: - 3933.074226745864 allocVar_j_1_k_1
   + cum_prob_j_1_k_1_s_20 <= 0
 VUB_j_1_k_2_s_20: - 3933.074226745864 allocVar_j_1_k_2
   + cum_prob_j_1_k_2_s_20 <= 0
 VUB_j_2_k_0_s_20: - 3933.074226745864 allocVar_j_2_k_0
   + cum_prob_j_2_k_0_s_20 <= 0
 VUB_j_2_k_1_s_20: - 3933.074226745864 allocVar_j_2_k_1
   + cum_prob_j_2_k_1_s_20 <= 0
 VUB_j_2_k_2_s_20: - 3933.074226745864 allocVar_j_2_k_2
   + cum_prob_j_2_k_2_s_20 <= 0
 VUB_j_0_k_0_s_21: - 3408.391315243858 allocVar_j_0_k_0
   + cum_prob_j_0_k_0_s_21 <= 0
 VUB_j_0_k_1_s_21: - 3408.391315243858 allocVar_j_0_k_1
   + cum_prob_j_0_k_1_s_21 <= 0
 VUB_j_0_k_2_s_21: - 3408.391315243858 allocVar_j_0_k_2
   + cum_prob_j_0_k_2_s_21 <= 0
 VUB_j_1_k_0_s_21: - 3408.391315243858 allocVar_j_1_k_0
   + cum_prob_j_1_k_0_s_21 <= 0
 VUB_j_1_k_1_s_21: - 3408.391315243858 allocVar_j_1_k_1
   + cum_prob_j_1_k_1_s_21 <= 0
 VUB_j_1_k_2_s_21: - 3408.391315243858 allocVar_j_1_k_2
   + cum_prob_j_1_k_2_s_21 <= 0
 VUB_j_2_k_0_s_21: - 3408.391315243858 allocVar_j_2_k_0
   + cum_prob_j_2_k_0_s_21 <= 0
 VUB_j_2_k_1_s_21: - 3408.391315243858 allocVar_j_2_k_1
   + cum_prob_j_2_k_1_s_21 <= 0
 VUB_j_2_k_2_s_21: - 3408.391315243858 allocVar_j_2_k_2
   + cum_prob_j_2_k_2_s_21 <= 0
 VUB_j_0_k_0_s_22: - 4297.761291479284 allocVar_j_0_k_0
   + cum_prob_j_0_k_0_s_22 <= 0
 VUB_j_0_k_1_s_22: - 4297.761291479284 allocVar_j_0_k_1
   + cum_prob_j_0_k_1_s_22 <= 0
 VUB_j_0_k_2_s_22: - 4297.761291479284 allocVar_j_0_k_2
   + cum_prob_j_0_k_2_s_22 <= 0
 VUB_j_1_k_0_s_22: - 4297.761291479284 allocVar_j_1_k_0
   + cum_prob_j_1_k_0_s_22 <= 0
 VUB_j_1_k_1_s_22: - 4297.761291479284 allocVar_j_1_k_1
   + cum_prob_j_1_k_1_s_22 <= 0
 VUB_j_1_k_2_s_22: - 4297.761291479284 allocVar_j_1_k_2
   + cum_prob_j_1_k_2_s_22 <= 0
 VUB_j_2_k_0_s_22: - 4297.761291479284 allocVar_j_2_k_0
   + cum_prob_j_2_k_0_s_22 <= 0
 VUB_j_2_k_1_s_22: - 4297.761291479284 allocVar_j_2_k_1
   + cum_prob_j_2_k_1_s_22 <= 0
 VUB_j_2_k_2_s_22: - 4297.761291479284 allocVar_j_2_k_2
   + cum_prob_j_2_k_2_s_22 <= 0
 VUB_j_0_k_0_s_23: - 4729.108687460739 allocVar_j_0_k_0
   + cum_prob_j_0_k_0_s_23 <= 0
 VUB_j_0_k_1_s_23: - 4729.108687460739 allocVar_j_0_k_1
   + cum_prob_j_0_k_1_s_23 <= 0
 VUB_j_0_k_2_s_23: - 4729.108687460739 allocVar_j_0_k_2
   + cum_prob_j_0_k_2_s_23 <= 0
 VUB_j_1_k_0_s_23: - 4729.108687460739 allocVar_j_1_k_0
   + cum_prob_j_1_k_0_s_23 <= 0
 VUB_j_1_k_1_s_23: - 4729.108687460739 allocVar_j_1_k_1
   + cum_prob_j_1_k_1_s_23 <= 0
 VUB_j_1_k_2_s_23: - 4729.108687460739 allocVar_j_1_k_2
   + cum_prob_j_1_k_2_s_23 <= 0
 VUB_j_2_k_0_s_23: - 4729.108687460739 allocVar_j_2_k_0
   + cum_prob_j_2_k_0_s_23 <= 0
 VUB_j_2_k_1_s_23: - 4729.108687460739 allocVar_j_2_k_1
   + cum_prob_j_2_k_1_s_23 <= 0
 VUB_j_2_k_2_s_23: - 4729.108687460739 allocVar_j_2_k_2
   + cum_prob_j_2_k_2_s_23 <= 0
 VUB_j_0_k_0_s_24: - 3937.92134864545 allocVar_j_0_k_0
   + cum_prob_j_0_k_0_s_24 <= 0
 VUB_j_0_k_1_s_24: - 3937.92134864545 allocVar_j_0_k_1
   + cum_prob_j_0_k_1_s_24 <= 0
 VUB_j_0_k_2_s_24: - 3937.92134864545 allocVar_j_0_k_2
   + cum_prob_j_0_k_2_s_24 <= 0
 VUB_j_1_k_0_s_24: - 3937.92134864545 allocVar_j_1_k_0
   + cum_prob_j_1_k_0_s_24 <= 0
 VUB_j_1_k_1_s_24: - 3937.92134864545 allocVar_j_1_k_1
   + cum_prob_j_1_k_1_s_24 <= 0
 VUB_j_1_k_2_s_24: - 3937.92134864545 allocVar_j_1_k_2
   + cum_prob_j_1_k_2_s_24 <= 0
 VUB_j_2_k_0_s_24: - 3937.92134864545 allocVar_j_2_k_0
   + cum_prob_j_2_k_0_s_24 <= 0
 VUB_j_2_k_1_s_24: - 3937.92134864545 allocVar_j_2_k_1
   + cum_prob_j_2_k_1_s_24 <= 0
 VUB_j_2_k_2_s_24: - 3937.92134864545 allocVar_j_2_k_2
   + cum_prob_j_2_k_2_s_24 <= 0
 VUB_j_0_k_0_s_25: - 4709.3716312853 allocVar_j_0_k_0
   + cum_prob_j_0_k_0_s_25 <= 0
 VUB_j_0_k_1_s_25: - 4709.3716312853 allocVar_j_0_k_1
   + cum_prob_j_0_k_1_s_25 <= 0
 VUB_j_0_k_2_s_25: - 4709.3716312853 allocVar_j_0_k_2
   + cum_prob_j_0_k_2_s_25 <= 0
 VUB_j_1_k_0_s_25: - 4709.3716312853 allocVar_j_1_k_0
   + cum_prob_j_1_k_0_s_25 <= 0
 VUB_j_1_k_1_s_25: - 4709.3716312853 allocVar_j_1_k_1
   + cum_prob_j_1_k_1_s_25 <= 0
 VUB_j_1_k_2_s_25: - 4709.3716312853 allocVar_j_1_k_2
   + cum_prob_j_1_k_2_s_25 <= 0
 VUB_j_2_k_0_s_25: - 4709.3716312853 allocVar_j_2_k_0
   + cum_prob_j_2_k_0_s_25 <= 0
 VUB_j_2_k_1_s_25: - 4709.3716312853 allocVar_j_2_k_1
   + cum_prob_j_2_k_1_s_25 <= 0
 VUB_j_2_k_2_s_25: - 4709.3716312853 allocVar_j_2_k_2
   + cum_prob_j_2_k_2_s_25 <= 0
 VUB_j_0_k_0_s_26: - 4911.520976311929 allocVar_j_0_k_0
   + cum_prob_j_0_k_0_s_26 <= 0
 VUB_j_0_k_1_s_26: - 4911.520976311929 allocVar_j_0_k_1
   + cum_prob_j_0_k_1_s_26 <= 0
 VUB_j_0_k_2_s_26: - 4911.520976311929 allocVar_j_0_k_2
   + cum_prob_j_0_k_2_s_26 <= 0
 VUB_j_1_k_0_s_26: - 4911.520976311929 allocVar_j_1_k_0
   + cum_prob_j_1_k_0_s_26 <= 0
 VUB_j_1_k_1_s_26: - 4911.520976311929 allocVar_j_1_k_1
   + cum_prob_j_1_k_1_s_26 <= 0
 VUB_j_1_k_2_s_26: - 4911.520976311929 allocVar_j_1_k_2
   + cum_prob_j_1_k_2_s_26 <= 0
 VUB_j_2_k_0_s_26: - 4911.520976311929 allocVar_j_2_k_0
   + cum_prob_j_2_k_0_s_26 <= 0
 VUB_j_2_k_1_s_26: - 4911.520976311929 allocVar_j_2_k_1
   + cum_prob_j_2_k_1_s_26 <= 0
 VUB_j_2_k_2_s_26: - 4911.520976311929 allocVar_j_2_k_2
   + cum_prob_j_2_k_2_s_26 <= 0
 multiple_choic_j_0: allocVar_j_0_k_0 + allocVar_j_0_k_1 + allocVar_j_0_k_2
   = 1
 multiple_choic_j_1: allocVar_j_1_k_0 + allocVar_j_1_k_1 + allocVar_j_1_k_2
   = 1
 multiple_choic_j_2: allocVar_j_2_k_0 + allocVar_j_2_k_1 + allocVar_j_2_k_2
   = 1
 budget: allocVar_j_0_k_1 + 2 allocVar_j_0_k_2 + allocVar_j_1_k_1
   + 2 allocVar_j_1_k_2 + allocVar_j_2_k_1 + 2 allocVar_j_2_k_2 <= 2
Bounds
Binaries
 allocVar_j_0_k_0 allocVar_j_0_k_1 allocVar_j_0_k_2 allocVar_j_1_k_0
 allocVar_j_1_k_1 allocVar_j_1_k_2 allocVar_j_2_k_0 allocVar_j_2_k_1
 allocVar_j_2_k_2
End
